solution status: optimal solution found
objective value:                     218860.642196674
d11(0,0)                                            1 	(obj:0)
d11(2,3)                                            1 	(obj:0)
d11(2,5)                                            1 	(obj:0)
d11(3,7)                                            1 	(obj:0)
d11(3,8)                                            1 	(obj:0)
d11(3,9)                                            1 	(obj:0)
d11(3,10)                                           1 	(obj:0)
d11(3,11)                                           1 	(obj:0)
d11(3,13)                                           1 	(obj:0)
d11(3,14)                                           1 	(obj:0)
d11(4,15)                                           1 	(obj:0)
d11(4,17)                                           1 	(obj:0)
d11(4,19)                                           1 	(obj:0)
d11(4,21)                                           1 	(obj:0)
d11(4,23)                                           1 	(obj:0)
d11(4,25)                                           1 	(obj:0)
d11(4,27)                                           1 	(obj:0)
d11(4,29)                                           1 	(obj:0)
d11(5,31)                                           1 	(obj:0)
d11(5,32)                                           1 	(obj:0)
d11(5,33)                                           1 	(obj:0)
d11(5,34)                                           1 	(obj:0)
d11(5,35)                                           1 	(obj:0)
d11(5,36)                                           1 	(obj:0)
d11(5,37)                                           1 	(obj:0)
d11(5,38)                                           1 	(obj:0)
d11(5,39)                                           1 	(obj:0)
d11(5,40)                                           1 	(obj:0)
d11(5,41)                                           1 	(obj:0)
d11(5,42)                                           1 	(obj:0)
d11(5,43)                                           1 	(obj:0)
d11(5,44)                                           1 	(obj:0)
d11(5,45)                                           1 	(obj:0)
d11(5,46)                                           1 	(obj:0)
d11(5,47)                                           1 	(obj:0)
d11(5,48)                                           1 	(obj:0)
d11(5,49)                                           1 	(obj:0)
d11(5,50)                                           1 	(obj:0)
d11(5,51)                                           1 	(obj:0)
d11(5,52)                                           1 	(obj:0)
d11(5,53)                                           1 	(obj:0)
d11(5,54)                                           1 	(obj:0)
d11(5,55)                                           1 	(obj:0)
d11(5,56)                                           1 	(obj:0)
d11(5,57)                                           1 	(obj:0)
d11(5,58)                                           1 	(obj:0)
d11(5,59)                                           1 	(obj:0)
d11(5,60)                                           1 	(obj:0)
d11(5,61)                                           1 	(obj:0)
d11(5,62)                                           1 	(obj:0)
d11(6,63)                                           1 	(obj:0)
d11(6,65)                                           1 	(obj:0)
d11(6,67)                                           1 	(obj:0)
d11(6,69)                                           1 	(obj:0)
d11(6,71)                                           1 	(obj:0)
d11(6,73)                                           1 	(obj:0)
d11(6,75)                                           1 	(obj:0)
d11(6,77)                                           1 	(obj:0)
d11(6,79)                                           1 	(obj:0)
d11(6,81)                                           1 	(obj:0)
d11(6,83)                                           1 	(obj:0)
d11(6,85)                                           1 	(obj:0)
d11(6,87)                                           1 	(obj:0)
d11(6,89)                                           1 	(obj:0)
d11(6,91)                                           1 	(obj:0)
d11(6,93)                                           1 	(obj:0)
d11(6,95)                                           1 	(obj:0)
d11(6,97)                                           1 	(obj:0)
d11(6,99)                                           1 	(obj:0)
d11(6,101)                                          1 	(obj:0)
d11(6,103)                                          1 	(obj:0)
d11(6,105)                                          1 	(obj:0)
d11(6,107)                                          1 	(obj:0)
d11(6,109)                                          1 	(obj:0)
d11(6,111)                                          1 	(obj:0)
d11(6,113)                                          1 	(obj:0)
d11(6,115)                                          1 	(obj:0)
d11(6,117)                                          1 	(obj:0)
d11(6,119)                                          1 	(obj:0)
d11(6,121)                                          1 	(obj:0)
d11(6,123)                                          1 	(obj:0)
d11(6,125)                                          1 	(obj:0)
d12(1,2)                                            1 	(obj:0)
d12(2,4)                                            1 	(obj:0)
d12(2,6)                                            1 	(obj:0)
d12(6,64)                                           1 	(obj:0)
d12(6,66)                                           1 	(obj:0)
d12(6,68)                                           1 	(obj:0)
d12(6,70)                                           1 	(obj:0)
d12(6,72)                                           1 	(obj:0)
d12(6,74)                                           1 	(obj:0)
d12(6,76)                                           1 	(obj:0)
d12(6,78)                                           1 	(obj:0)
d12(6,80)                                           1 	(obj:0)
d12(6,82)                                           1 	(obj:0)
d12(6,84)                                           1 	(obj:0)
d12(6,86)                                           1 	(obj:0)
d12(6,88)                                           1 	(obj:0)
d12(6,90)                                           1 	(obj:0)
d12(6,92)                                           1 	(obj:0)
d12(6,94)                                           1 	(obj:0)
d12(6,96)                                           1 	(obj:0)
d12(6,98)                                           1 	(obj:0)
d12(6,100)                                          1 	(obj:0)
d12(6,102)                                          1 	(obj:0)
d12(6,104)                                          1 	(obj:0)
d12(6,106)                                          1 	(obj:0)
d12(6,108)                                          1 	(obj:0)
d12(6,110)                                          1 	(obj:0)
d12(6,112)                                          1 	(obj:0)
d12(6,114)                                          1 	(obj:0)
d12(6,116)                                          1 	(obj:0)
d12(6,118)                                          1 	(obj:0)
d12(6,120)                                          1 	(obj:0)
d12(6,122)                                          1 	(obj:0)
d12(6,124)                                          1 	(obj:0)
d12(6,126)                                          1 	(obj:0)
d21(4,15)                                           1 	(obj:0)
d21(5,31)                                           1 	(obj:0)
d21(5,32)                                           1 	(obj:0)
d21(5,33)                                           1 	(obj:0)
d21(5,35)                                           1 	(obj:0)
d21(5,39)                                           1 	(obj:0)
d21(5,41)                                           1 	(obj:0)
d21(5,43)                                           1 	(obj:0)
d21(5,47)                                           1 	(obj:0)
d21(5,51)                                           1 	(obj:0)
d21(5,55)                                           1 	(obj:0)
d21(6,63)                                           1 	(obj:0)
d21(6,64)                                           1 	(obj:0)
d21(6,65)                                           1 	(obj:0)
d21(6,66)                                           1 	(obj:0)
d21(6,67)                                           1 	(obj:0)
d21(6,68)                                           1 	(obj:0)
d21(6,69)                                           1 	(obj:0)
d21(6,71)                                           1 	(obj:0)
d21(6,72)                                           1 	(obj:0)
d21(6,73)                                           1 	(obj:0)
d21(6,75)                                           1 	(obj:0)
d21(6,79)                                           1 	(obj:0)
d21(6,80)                                           1 	(obj:0)
d21(6,81)                                           1 	(obj:0)
d21(6,82)                                           1 	(obj:0)
d21(6,83)                                           1 	(obj:0)
d21(6,84)                                           1 	(obj:0)
d21(6,85)                           0.999999999999997 	(obj:0)
d21(6,87)                                           1 	(obj:0)
d21(6,88)                                           1 	(obj:0)
d21(6,95)                                           1 	(obj:0)
d21(6,96)                                           1 	(obj:0)
d21(6,97)                                           1 	(obj:0)
d21(6,98)                                           1 	(obj:0)
d21(6,99)                                           1 	(obj:0)
d21(6,100)                                          1 	(obj:0)
d21(6,103)                                          1 	(obj:0)
d21(6,104)                                          1 	(obj:0)
d21(6,111)                                          1 	(obj:0)
d21(6,112)                                          1 	(obj:0)
d21(6,113)                                          1 	(obj:0)
d21(6,115)                                          1 	(obj:0)
d21(6,119)                                          1 	(obj:0)
y2(6,100)                             422.29115718601 	(obj:0)
y2(6,102)                             422.29115718601 	(obj:0)
y2(6,104)                            422.291157186047 	(obj:0)
y2(6,106)                            422.291157186047 	(obj:0)
y2(6,108)                            422.291157186047 	(obj:0)
y2(6,110)                            422.291157186047 	(obj:0)
y2(6,112)                             422.29115718601 	(obj:0)
y2(6,114)                             422.29115718601 	(obj:0)
y2(6,116)                             422.29115718601 	(obj:0)
y2(6,118)                             422.29115718601 	(obj:0)
y2(6,120)                             422.29115718601 	(obj:0)
y2(6,122)                             422.29115718601 	(obj:0)
y2(6,124)                            422.291157186047 	(obj:0)
y2(6,126)                             422.29115718601 	(obj:0)
STE(1,1)                                         7245 	(obj:0)
STE(0,0)                                         7875 	(obj:0)
STE(1,2)                             8561.21408587651 	(obj:0)
STE(2,3)                             6614.99999997623 	(obj:0)
STE(2,4)                             7931.21408585532 	(obj:0)
STE(2,5)                             7931.21408585274 	(obj:0)
STE(2,6)                             9247.42817173182 	(obj:0)
STE(3,7)                             4326.75010108741 	(obj:0)
STE(3,8)                             5984.99999997623 	(obj:0)
STE(3,9)                              5642.9641869665 	(obj:0)
STE(3,10)                            7301.21408585532 	(obj:0)
STE(3,11)                            5642.96418696392 	(obj:0)
STE(3,12)                            7301.21408585274 	(obj:0)
STE(3,13)                            6959.17827284301 	(obj:0)
STE(3,14)                            8617.42817173182 	(obj:0)
STE(4,15)                            2038.50020219859 	(obj:0)
STE(4,16)                            3696.75010108742 	(obj:0)
STE(4,17)                             3696.7501010874 	(obj:0)
STE(4,18)                            5354.99999997623 	(obj:0)
STE(4,19)                            3354.71428807767 	(obj:0)
STE(4,20)                             5012.9641869665 	(obj:0)
STE(4,21)                            5012.96418696649 	(obj:0)
STE(4,22)                            6671.21408585532 	(obj:0)
STE(4,23)                            3354.71428807509 	(obj:0)
STE(4,24)                            5012.96418696392 	(obj:0)
STE(4,25)                            5012.96418696391 	(obj:0)
STE(4,26)                            6671.21408585274 	(obj:0)
STE(4,27)                            4670.92837395418 	(obj:0)
STE(4,28)                            6329.17827284301 	(obj:0)
STE(4,29)                              6329.178272843 	(obj:0)
STE(4,30)                            7987.42817173182 	(obj:0)
STE(5,31)                             -611.9639847679 	(obj:0)
STE(5,32)                            1046.28591412092 	(obj:0)
STE(5,33)                            1046.28591412093 	(obj:0)
STE(5,34)                            2704.53581300974 	(obj:0)
STE(5,35)                            1046.28591412092 	(obj:0)
STE(5,36)                            2704.53581300973 	(obj:0)
STE(5,37)                            2704.53581300974 	(obj:0)
STE(5,38)                            4362.78571189856 	(obj:0)
STE(5,39)                            704.250101111183 	(obj:0)
STE(5,40)                            2362.49999999995 	(obj:0)
STE(5,41)                            2362.50000000001 	(obj:0)
STE(5,42)                            4020.74989888881 	(obj:0)
STE(5,43)                                      2362.5 	(obj:0)
STE(5,44)                            4020.74989888882 	(obj:0)
STE(5,45)                            4020.74989888883 	(obj:0)
STE(5,46)                            5678.99979777765 	(obj:0)
STE(5,47)                            704.250101108603 	(obj:0)
STE(5,48)                            2362.49999999742 	(obj:0)
STE(5,49)                            2362.49999999743 	(obj:0)
STE(5,50)                            4020.74989888625 	(obj:0)
STE(5,51)                            2362.49999999742 	(obj:0)
STE(5,52)                            4020.74989888624 	(obj:0)
STE(5,53)                            4020.74989888625 	(obj:0)
STE(5,54)                            5678.99979777507 	(obj:0)
STE(5,55)                            2020.46418698769 	(obj:0)
STE(5,56)                            3678.71408587651 	(obj:0)
STE(5,57)                            3678.71408587652 	(obj:0)
STE(5,58)                            5336.96398476534 	(obj:0)
STE(5,59)                            3678.71408587651 	(obj:0)
STE(5,60)                            5336.96398476532 	(obj:0)
STE(5,61)                            5336.96398476534 	(obj:0)
STE(5,62)                            6995.21388365411 	(obj:0)
STE(6,63)                           -2270.21388365415 	(obj:0)
STE(6,64)                           -840.787385441156 	(obj:0)
STE(6,65)                           -611.963984765331 	(obj:0)
STE(6,66)                            817.462513447662 	(obj:0)
STE(6,67)                           -611.963984765321 	(obj:0)
STE(6,68)                            817.462513447672 	(obj:0)
STE(6,69)                             1046.2859141235 	(obj:0)
STE(6,70)                            2475.71241233649 	(obj:0)
STE(6,71)                           -611.963984765333 	(obj:0)
STE(6,72)                             817.46251344766 	(obj:0)
STE(6,73)                            1046.28591412348 	(obj:0)
STE(6,74)                            2475.71241233648 	(obj:0)
STE(6,75)                            1046.28591412349 	(obj:0)
STE(6,76)                            2475.71241233649 	(obj:0)
STE(6,77)                            2704.53581301231 	(obj:0)
STE(6,78)                             4133.9623112253 	(obj:0)
STE(6,79)                           -953.999797775066 	(obj:0)
STE(6,80)                            475.426700437927 	(obj:0)
STE(6,81)                              704.2501011137 	(obj:0)
STE(6,82)                            2133.67659932669 	(obj:0)
STE(6,83)                            704.250101113762 	(obj:0)
STE(6,84)                            2133.67659932676 	(obj:0)
STE(6,85)                            2362.50000000257 	(obj:0)
STE(6,86)                            3791.92649821556 	(obj:0)
STE(6,87)                            704.250101113752 	(obj:0)
STE(6,88)                            2133.67659932674 	(obj:0)
STE(6,89)                            2362.50000000257 	(obj:0)
STE(6,90)                            3791.92649821556 	(obj:0)
STE(6,91)                            2362.50000000258 	(obj:0)
STE(6,92)                            3791.92649821557 	(obj:0)
STE(6,93)                             4020.7498988914 	(obj:0)
STE(6,94)                            5450.17639710439 	(obj:0)
STE(6,95)                           -953.999797777645 	(obj:0)
STE(6,96)                            475.426700435348 	(obj:0)
STE(6,97)                            704.250101111172 	(obj:0)
STE(6,98)                            2133.67659932417 	(obj:0)
STE(6,99)                            704.250101111183 	(obj:0)
STE(6,100)                           2133.67659932414 	(obj:0)
STE(6,101)                                     2362.5 	(obj:0)
STE(6,102)                           3791.92649821296 	(obj:0)
STE(6,103)                           704.250101111173 	(obj:0)
STE(6,104)                           2133.67659932417 	(obj:0)
STE(6,105)                           2362.50000000002 	(obj:0)
STE(6,106)                           3791.92649821298 	(obj:0)
STE(6,107)                           2362.50000000003 	(obj:0)
STE(6,108)                           3791.92649821299 	(obj:0)
STE(6,109)                           4020.74989888882 	(obj:0)
STE(6,110)                           5450.17639710181 	(obj:0)
STE(6,111)                           362.214288101442 	(obj:0)
STE(6,112)                            1791.6407863144 	(obj:0)
STE(6,113)                           2020.46418699026 	(obj:0)
STE(6,114)                           3449.89068520322 	(obj:0)
STE(6,115)                           2020.46418699027 	(obj:0)
STE(6,116)                           3449.89068520323 	(obj:0)
STE(6,117)                           3678.71408587909 	(obj:0)
STE(6,118)                           5108.14058409205 	(obj:0)
STE(6,119)                           2020.46418699026 	(obj:0)
STE(6,120)                           3449.89068520322 	(obj:0)
STE(6,121)                           3678.71408587908 	(obj:0)
STE(6,122)                           5108.14058409203 	(obj:0)
STE(6,123)                           3678.71408587909 	(obj:0)
STE(6,124)                           5108.14058409208 	(obj:0)
STE(6,125)                           5336.96398476789 	(obj:0)
STE(6,126)                           6766.39048298082 	(obj:0)
y1(6,99)                             925.424908997624 	(obj:0)
y1(6,101)                            925.424908997624 	(obj:0)
y1(6,103)                            925.424908997624 	(obj:0)
y1(6,105)                            925.424908997595 	(obj:0)
y1(6,107)                            925.424908997595 	(obj:0)
y1(6,109)                            925.424908997624 	(obj:0)
y1(6,111)                            925.424908997624 	(obj:0)
y1(6,113)                            925.424908997624 	(obj:0)
y1(6,115)                            925.424908997624 	(obj:0)
y1(6,117)                            925.424908997624 	(obj:0)
y1(6,119)                            925.424908997624 	(obj:0)
y1(6,121)                            925.424908997624 	(obj:0)
y1(6,123)                            925.424908997624 	(obj:0)
y1(6,125)                            925.424908997599 	(obj:0)
BG(5)                                1056.16819580301 	(obj:10)
BG(6)                                571.359175339011 	(obj:10)
WB(1)                                3259.55177567504 	(obj:0)
AVE(1)                               3259.55177567504 	(obj:0)
WB(2)                                3259.55588804169 	(obj:0)
AVE(2)                               3259.55588804169 	(obj:0)
WB(3)                                3579.36165209166 	(obj:0)
AVE(3)                               3579.36165209166 	(obj:0)
AVE(4)                               3579.36576445831 	(obj:0)
AVE(5)                               3472.77007794174 	(obj:0)
AVE(6)                                3046.3618950668 	(obj:0)
WG(4)                                3579.36576445831 	(obj:10)
WG(5)                                3472.77007794174 	(obj:10)
WG(6)                                 3046.3618950668 	(obj:10)
BG(1)                                2673.40993877551 	(obj:10)
BG(2)                                2673.40993879738 	(obj:10)
BG(3)                                4196.29249897924 	(obj:10)
BG(4)                                616.926734521282 	(obj:10)
y1(2,3)                          2.13924795389175e-008 	(obj:0)
y1(2,5)                          2.13926796277519e-008 	(obj:0)
y1(3,7)                              1492.42490899994 	(obj:0)
y1(3,9)                              1492.42490899994 	(obj:0)
y1(3,11)                             1492.42490899994 	(obj:0)
y1(3,13)                             1492.42490899994 	(obj:0)
y1(4,15)                             1492.42490899994 	(obj:0)
y1(4,17)                             1492.42490899994 	(obj:0)
y1(4,19)                             1492.42490899994 	(obj:0)
y1(4,21)                             1492.42490899994 	(obj:0)
y1(4,23)                             1492.42490899994 	(obj:0)
y1(4,25)                             1492.42490899994 	(obj:0)
y1(4,27)                             1492.42490899994 	(obj:0)
y1(4,29)                             1492.42490899994 	(obj:0)
y1(5,31)                             1818.41776826984 	(obj:0)
y1(5,32)                             325.992859269903 	(obj:0)
y1(5,33)                             1818.41776826984 	(obj:0)
y1(5,34)                             325.992859269903 	(obj:0)
y1(5,35)                             1818.41776826984 	(obj:0)
y1(5,36)                             325.992859269903 	(obj:0)
y1(5,37)                             1818.41776826984 	(obj:0)
y1(5,38)                             325.992859269903 	(obj:0)
y1(5,39)                             1818.41776826984 	(obj:0)
y1(5,40)                              325.99285926995 	(obj:0)
y1(5,41)                             1818.41776826984 	(obj:0)
y1(5,42)                             325.992859269916 	(obj:0)
y1(5,43)                             1818.41776826984 	(obj:0)
y1(5,44)                             325.992859269903 	(obj:0)
y1(5,45)                             1818.41776826984 	(obj:0)
y1(5,46)                             325.992859269903 	(obj:0)
y1(5,47)                             1818.41776826984 	(obj:0)
y1(5,48)                             325.992859269903 	(obj:0)
y1(5,49)                             1818.41776826984 	(obj:0)
y1(5,50)                             325.992859269903 	(obj:0)
y1(5,51)                             1818.41776826984 	(obj:0)
y1(5,52)                             325.992859269903 	(obj:0)
y1(5,53)                             1818.41776826984 	(obj:0)
y1(5,54)                             325.992859269903 	(obj:0)
y1(5,55)                             1818.41776826984 	(obj:0)
y1(5,56)                             325.992859269903 	(obj:0)
y1(5,57)                             1818.41776826984 	(obj:0)
y1(5,58)                             325.992859269903 	(obj:0)
y1(5,59)                             1818.41776826984 	(obj:0)
y1(5,60)                             325.992859269903 	(obj:0)
y1(5,61)                             1818.41776826984 	(obj:0)
y1(5,62)                             325.992859269938 	(obj:0)
y1(6,63)                             925.424908997624 	(obj:0)
y1(6,65)                             925.424908997624 	(obj:0)
y1(6,67)                             925.424908997624 	(obj:0)
y1(6,69)                             925.424908997624 	(obj:0)
y1(6,71)                             925.424908997624 	(obj:0)
y1(6,73)                             925.424908997624 	(obj:0)
y1(6,75)                             925.424908997624 	(obj:0)
y1(6,77)                             925.424908997624 	(obj:0)
y1(6,79)                             925.424908997624 	(obj:0)
y1(6,81)                             925.424908997624 	(obj:0)
y1(6,83)                             925.424908997624 	(obj:0)
y1(6,85)                             925.424908997624 	(obj:0)
y1(6,87)                             925.424908997624 	(obj:0)
y1(6,89)                             925.424908997624 	(obj:0)
y1(6,91)                             925.424908997624 	(obj:0)
y1(6,93)                             925.424908997624 	(obj:0)
y1(6,95)                             925.424908997624 	(obj:0)
y1(6,97)                             925.424908997624 	(obj:0)
y2(1,2)                              1385.48851144895 	(obj:0)
y2(2,4)                              1385.48851142665 	(obj:0)
y2(2,6)                              1385.48851142665 	(obj:0)
y2(6,64)                             422.291157186047 	(obj:0)
y2(6,66)                             422.291157186047 	(obj:0)
y2(6,68)                             422.291157186047 	(obj:0)
y2(6,70)                             422.291157186047 	(obj:0)
y2(6,72)                             422.291157186047 	(obj:0)
y2(6,74)                             422.291157186047 	(obj:0)
y2(6,76)                             422.291157186047 	(obj:0)
y2(6,78)                             422.291157186047 	(obj:0)
y2(6,80)                             422.291157186047 	(obj:0)
y2(6,82)                             422.291157186047 	(obj:0)
y2(6,84)                             422.291157186047 	(obj:0)
y2(6,86)                             422.291157186047 	(obj:0)
y2(6,88)                             422.291157186047 	(obj:0)
y2(6,90)                             422.291157186047 	(obj:0)
y2(6,92)                             422.291157186047 	(obj:0)
y2(6,94)                             422.291157186047 	(obj:0)
y2(6,96)                             422.291157186047 	(obj:0)
y2(6,98)                             422.291157186047 	(obj:0)
